gen	cost
1	1458
2	1446
3	1440
4	1430
5	1413
6	1402
7	1386
8	1375
9	1367
10	1354
11	1345
12	1341
13	1339
14	1338
15	1335
16	1323
17	1321
18	1305
19	1296
20	1274
21	1274
22	1272
23	1268
24	1268
25	1254
26	1251
27	1248
28	1245
29	1237
30	1233
31	1223
32	1217
33	1214
34	1209
35	1200
36	1194
37	1193
38	1188
39	1185
40	1176
41	1166
42	1166
43	1163
44	1162
45	1161
46	1160
47	1159
48	1154
49	1153
50	1151

